id: 1238
name: ns2017839
group: miplib2010
method: 1

Gurobi 7.0.2 (linux64, Matlab) logging started Fri Apr 20 04:44:07 2018


Gurobi 7.0.2 (linux64) logging started Fri Apr 20 04:44:07 2018

Optimize a model with 54510 rows, 55224 columns and 317840 nonzeros
Coefficient statistics:
  Matrix range     [3e-01, 4e+07]
  Objective range  [1e+02, 8e+08]
  Bounds range     [1e+00, 1e+00]
  RHS range        [8e+00, 8e+07]
Presolve removed 4755 rows and 3455 columns
Presolve time: 0.08s
Presolved: 49755 rows, 53235 columns, 299643 nonzeros

Iteration    Objective       Primal Inf.    Dual Inf.      Time
       0   -7.7508678e+34   1.330000e+32   7.750868e+04      0s
   28642    7.7025640e+13   0.000000e+00   0.000000e+00      4s

Solved in 28642 iterations and 3.85 seconds
Optimal objective  7.702563957e+13
status: OPTIMAL
